70
1 0 10
2 0 11
2 1 5
3 0 2
3 1 6
3 2 4
4 0 5
4 1 12
4 2 11
4 3 11
5 0 12
5 1 12
5 2 1
5 3 7
5 4 12
6 0 7
6 1 11
6 2 5
6 3 5
6 4 10
6 5 5
7 0 9
7 1 4
7 2 9
7 3 1
7 4 5
7 5 11
7 6 2
8 0 1
8 1 4
8 2 6
8 3 3
8 4 8
8 5 7
8 6 6
8 7 12
9 0 11
9 1 6
9 2 12
9 3 12
9 4 12
9 5 12
9 6 9
9 7 11
9 8 6
10 0 11
10 1 6
10 2 9
10 3 3
10 4 1
10 5 8
10 6 2
10 7 8
10 8 4
10 9 5
11 0 12
11 1 8
11 2 6
11 3 9
11 4 10
11 5 5
11 6 4
11 7 3
11 8 1
11 9 3
11 10 6
12 0 1
12 1 9
12 2 8
12 3 4
12 4 11
12 5 6
12 6 11
12 7 2
12 8 10
12 9 5
12 10 7
12 11 4
13 0 8
13 1 1
13 2 4
13 3 10
13 4 1
13 5 9
13 6 1
13 7 5
13 8 5
13 9 3
13 10 6
13 11 5
13 12 10
14 0 2
14 1 7
14 2 7
14 3 4
14 4 10
14 5 4
14 6 8
14 7 6
14 8 11
14 9 10
14 10 9
14 11 5
14 12 1
14 13 10
15 0 8
15 1 4
15 2 9
15 3 3
15 4 6
15 5 9
15 6 10
15 7 5
15 8 6
15 9 5
15 10 9
15 11 3
15 12 11
15 13 12
15 14 9
16 0 8
16 1 1
16 2 12
16 3 5
16 4 10
16 5 10
16 6 6
16 7 11
16 8 2
16 9 10
16 10 8
16 11 5
16 12 8
16 13 9
16 14 11
16 15 5
17 0 1
17 1 1
17 2 4
17 3 6
17 4 2
17 5 9
17 6 7
17 7 3
17 8 6
17 9 11
17 10 11
17 11 3
17 12 9
17 13 10
17 14 2
17 15 3
17 16 9
18 0 8
18 1 5
18 2 10
18 3 9
18 4 3
18 5 9
18 6 6
18 7 7
18 8 5
18 9 5
18 10 1
18 11 11
18 12 3
18 13 12
18 14 3
18 15 7
18 16 4
18 17 10
19 0 12
19 1 9
19 2 10
19 3 1
19 4 2
19 5 6
19 6 6
19 7 7
19 8 2
19 9 9
19 10 12
19 11 8
19 12 4
19 13 3
19 14 11
19 15 4
19 16 10
19 17 12
19 18 11
20 0 5
20 1 8
20 2 4
20 3 3
20 4 9
20 5 10
20 6 11
20 7 6
20 8 9
20 9 7
20 10 3
20 11 1
20 12 1
20 13 1
20 14 6
20 15 3
20 16 3
20 17 10
20 18 4
20 19 1
21 0 11
21 1 6
21 2 5
21 3 12
21 4 11
21 5 2
21 6 6
21 7 4
21 8 11
21 9 2
21 10 7
21 11 4
21 12 2
21 13 6
21 14 10
21 15 2
21 16 8
21 17 5
21 18 10
21 19 10
21 20 2
22 0 8
22 1 3
22 2 6
22 3 9
22 4 8
22 5 2
22 6 6
22 7 8
22 8 1
22 9 6
22 10 7
22 11 12
22 12 3
22 13 11
22 14 3
22 15 6
22 16 10
22 17 5
22 18 1
22 19 8
22 20 3
22 21 10
23 0 3
23 1 6
23 2 8
23 3 10
23 4 3
23 5 7
23 6 2
23 7 6
23 8 5
23 9 8
23 10 5
23 11 4
23 12 10
23 13 11
23 14 9
23 15 8
23 16 12
23 17 11
23 18 8
23 19 5
23 20 6
23 21 7
23 22 1
24 0 9
24 1 4
24 2 12
24 3 11
24 4 8
24 5 4
24 6 2
24 7 9
24 8 2
24 9 6
24 10 5
24 11 10
24 12 2
24 13 4
24 14 4
24 15 7
24 16 2
24 17 8
24 18 11
24 19 5
24 20 10
24 21 4
24 22 2
24 23 4
25 0 5
25 1 4
25 2 8
25 3 5
25 4 6
25 5 9
25 6 12
25 7 11
25 8 7
25 9 1
25 10 3
25 11 10
25 12 12
25 13 5
25 14 8
25 15 6
25 16 3
25 17 12
25 18 3
25 19 5
25 20 2
25 21 9
25 22 7
25 23 10
25 24 11
26 0 3
26 1 4
26 2 12
26 3 12
26 4 6
26 5 3
26 6 12
26 7 7
26 8 7
26 9 10
26 10 2
26 11 7
26 12 4
26 13 12
26 14 6
26 15 1
26 16 6
26 17 7
26 18 7
26 19 3
26 20 11
26 21 12
26 22 2
26 23 3
26 24 4
26 25 12
27 0 8
27 1 5
27 2 8
27 3 6
27 4 11
27 5 7
27 6 6
27 7 1
27 8 8
27 9 11
27 10 12
27 11 8
27 12 10
27 13 12
27 14 3
27 15 10
27 16 1
27 17 6
27 18 8
27 19 11
27 20 1
27 21 1
27 22 6
27 23 12
27 24 11
27 25 5
27 26 11
28 0 10
28 1 4
28 2 11
28 3 7
28 4 5
28 5 6
28 6 8
28 7 4
28 8 8
28 9 8
28 10 2
28 11 12
28 12 4
28 13 12
28 14 10
28 15 3
28 16 12
28 17 6
28 18 6
28 19 5
28 20 9
28 21 9
28 22 2
28 23 8
28 24 11
28 25 5
28 26 9
28 27 4
29 0 12
29 1 2
29 2 2
29 3 1
29 4 8
29 5 1
29 6 10
29 7 6
29 8 1
29 9 11
29 10 2
29 11 12
29 12 3
29 13 11
29 14 10
29 15 6
29 16 1
29 17 12
29 18 4
29 19 3
29 20 2
29 21 7
29 22 2
29 23 2
29 24 1
29 25 6
29 26 7
29 27 2
29 28 2
30 0 11
30 1 10
30 2 5
30 3 3
30 4 7
30 5 7
30 6 10
30 7 4
30 8 11
30 9 6
30 10 10
30 11 7
30 12 4
30 13 4
30 14 3
30 15 2
30 16 10
30 17 12
30 18 6
30 19 10
30 20 11
30 21 3
30 22 9
30 23 8
30 24 9
30 25 12
30 26 5
30 27 7
30 28 4
30 29 1
31 0 6
31 1 10
31 2 7
31 3 9
31 4 12
31 5 4
31 6 5
31 7 8
31 8 4
31 9 8
31 10 9
31 11 5
31 12 4
31 13 1
31 14 2
31 15 7
31 16 4
31 17 5
31 18 9
31 19 8
31 20 6
31 21 3
31 22 10
31 23 4
31 24 9
31 25 5
31 26 7
31 27 9
31 28 3
31 29 10
31 30 2
32 0 8
32 1 7
32 2 5
32 3 7
32 4 8
32 5 7
32 6 1
32 7 4
32 8 2
32 9 2
32 10 3
32 11 5
32 12 7
32 13 12
32 14 8
32 15 6
32 16 12
32 17 8
32 18 9
32 19 8
32 20 6
32 21 5
32 22 9
32 23 8
32 24 7
32 25 1
32 26 1
32 27 3
32 28 5
32 29 2
32 30 9
32 31 11
33 0 9
33 1 11
33 2 8
33 3 11
33 4 11
33 5 10
33 6 8
33 7 1
33 8 12
33 9 9
33 10 9
33 11 4
33 12 12
33 13 1
33 14 4
33 15 2
33 16 9
33 17 11
33 18 7
33 19 4
33 20 11
33 21 7
33 22 2
33 23 1
33 24 5
33 25 12
33 26 4
33 27 1
33 28 3
33 29 10
33 30 6
33 31 12
33 32 10
34 0 10
34 1 4
34 2 3
34 3 9
34 4 2
34 5 11
34 6 3
34 7 4
34 8 2
34 9 2
34 10 5
34 11 8
34 12 6
34 13 6
34 14 7
34 15 12
34 16 3
34 17 5
34 18 1
34 19 5
34 20 10
34 21 7
34 22 12
34 23 10
34 24 4
34 25 11
34 26 4
34 27 9
34 28 10
34 29 11
34 30 12
34 31 12
34 32 9
34 33 3
35 0 3
35 1 11
35 2 6
35 3 2
35 4 10
35 5 7
35 6 11
35 7 10
35 8 5
35 9 10
35 10 10
35 11 7
35 12 5
35 13 5
35 14 2
35 15 7
35 16 7
35 17 6
35 18 8
35 19 9
35 20 6
35 21 6
35 22 4
35 23 7
35 24 11
35 25 11
35 26 3
35 27 3
35 28 12
35 29 10
35 30 1
35 31 10
35 32 4
35 33 6
35 34 6
36 0 8
36 1 10
36 2 10
36 3 2
36 4 8
36 5 6
36 6 1
36 7 5
36 8 11
36 9 3
36 10 10
36 11 3
36 12 9
36 13 3
36 14 12
36 15 5
36 16 9
36 17 2
36 18 1
36 19 2
36 20 10
36 21 8
36 22 9
36 23 3
36 24 12
36 25 1
36 26 12
36 27 9
36 28 11
36 29 8
36 30 2
36 31 10
36 32 8
36 33 1
36 34 10
36 35 12
37 0 3
37 1 6
37 2 8
37 3 7
37 4 2
37 5 12
37 6 12
37 7 8
37 8 10
37 9 2
37 10 2
37 11 9
37 12 11
37 13 2
37 14 12
37 15 10
37 16 4
37 17 5
37 18 9
37 19 11
37 20 2
37 21 10
37 22 9
37 23 12
37 24 12
37 25 3
37 26 6
37 27 3
37 28 8
37 29 10
37 30 1
37 31 5
37 32 1
37 33 10
37 34 4
37 35 12
37 36 1
38 0 1
38 1 2
38 2 11
38 3 5
38 4 8
38 5 12
38 6 1
38 7 2
38 8 3
38 9 2
38 10 5
38 11 8
38 12 5
38 13 8
38 14 10
38 15 4
38 16 1
38 17 9
38 18 9
38 19 6
38 20 1
38 21 10
38 22 11
38 23 3
38 24 5
38 25 4
38 26 9
38 27 6
38 28 7
38 29 9
38 30 4
38 31 12
38 32 5
38 33 8
38 34 3
38 35 9
38 36 8
38 37 12
39 0 7
39 1 11
39 2 3
39 3 6
39 4 4
39 5 1
39 6 3
39 7 2
39 8 7
39 9 1
39 10 10
39 11 6
39 12 9
39 13 11
39 14 6
39 15 9
39 16 2
39 17 8
39 18 8
39 19 2
39 20 5
39 21 3
39 22 2
39 23 6
39 24 11
39 25 11
39 26 8
39 27 11
39 28 10
39 29 9
39 30 12
39 31 10
39 32 8
39 33 7
39 34 11
39 35 9
39 36 4
39 37 1
39 38 12
40 0 7
40 1 8
40 2 7
40 3 4
40 4 5
40 5 6
40 6 9
40 7 1
40 8 11
40 9 2
40 10 9
40 11 1
40 12 10
40 13 5
40 14 5
40 15 11
40 16 6
40 17 8
40 18 7
40 19 8
40 20 6
40 21 10
40 22 7
40 23 5
40 24 12
40 25 5
40 26 3
40 27 2
40 28 12
40 29 7
40 30 12
40 31 7
40 32 5
40 33 11
40 34 7
40 35 4
40 36 11
40 37 9
40 38 11
40 39 10
41 0 8
41 1 8
41 2 12
41 3 11
41 4 8
41 5 5
41 6 3
41 7 4
41 8 9
41 9 3
41 10 8
41 11 11
41 12 4
41 13 7
41 14 5
41 15 8
41 16 4
41 17 11
41 18 4
41 19 5
41 20 5
41 21 3
41 22 11
41 23 9
41 24 12
41 25 4
41 26 8
41 27 3
41 28 9
41 29 7
41 30 10
41 31 7
41 32 4
41 33 3
41 34 12
41 35 5
41 36 1
41 37 11
41 38 11
41 39 8
41 40 1
42 0 3
42 1 1
42 2 4
42 3 1
42 4 7
42 5 7
42 6 8
42 7 1
42 8 12
42 9 5
42 10 5
42 11 10
42 12 2
42 13 10
42 14 3
42 15 5
42 16 10
42 17 3
42 18 4
42 19 11
42 20 2
42 21 5
42 22 10
42 23 8
42 24 8
42 25 5
42 26 8
42 27 10
42 28 2
42 29 4
42 30 6
42 31 4
42 32 5
42 33 8
42 34 4
42 35 10
42 36 1
42 37 3
42 38 12
42 39 11
42 40 9
42 41 7
43 0 8
43 1 7
43 2 2
43 3 10
43 4 12
43 5 7
43 6 4
43 7 12
43 8 8
43 9 1
43 10 6
43 11 7
43 12 2
43 13 7
43 14 10
43 15 11
43 16 5
43 17 12
43 18 7
43 19 5
43 20 5
43 21 10
43 22 8
43 23 12
43 24 8
43 25 9
43 26 10
43 27 10
43 28 6
43 29 4
43 30 6
43 31 4
43 32 7
43 33 9
43 34 4
43 35 7
43 36 4
43 37 8
43 38 3
43 39 5
43 40 6
43 41 5
43 42 3
44 0 12
44 1 4
44 2 8
44 3 1
44 4 11
44 5 5
44 6 6
44 7 12
44 8 12
44 9 10
44 10 2
44 11 3
44 12 12
44 13 9
44 14 11
44 15 4
44 16 9
44 17 11
44 18 8
44 19 11
44 20 1
44 21 4
44 22 5
44 23 1
44 24 9
44 25 12
44 26 1
44 27 5
44 28 12
44 29 6
44 30 12
44 31 11
44 32 7
44 33 3
44 34 1
44 35 3
44 36 2
44 37 3
44 38 7
44 39 6
44 40 6
44 41 1
44 42 7
44 43 2
45 0 7
45 1 1
45 2 9
45 3 1
45 4 3
45 5 9
45 6 12
45 7 6
45 8 12
45 9 6
45 10 10
45 11 4
45 12 1
45 13 5
45 14 5
45 15 4
45 16 3
45 17 6
45 18 2
45 19 11
45 20 5
45 21 3
45 22 10
45 23 8
45 24 3
45 25 12
45 26 12
45 27 9
45 28 4
45 29 11
45 30 2
45 31 11
45 32 3
45 33 12
45 34 7
45 35 9
45 36 9
45 37 8
45 38 11
45 39 4
45 40 5
45 41 8
45 42 2
45 43 6
45 44 6
46 0 10
46 1 4
46 2 2
46 3 9
46 4 1
46 5 11
46 6 1
46 7 12
46 8 5
46 9 1
46 10 8
46 11 6
46 12 10
46 13 1
46 14 2
46 15 11
46 16 6
46 17 8
46 18 12
46 19 9
46 20 12
46 21 10
46 22 1
46 23 8
46 24 3
46 25 2
46 26 4
46 27 8
46 28 1
46 29 5
46 30 12
46 31 4
46 32 6
46 33 8
46 34 3
46 35 8
46 36 7
46 37 12
46 38 5
46 39 5
46 40 6
46 41 9
46 42 7
46 43 5
46 44 9
46 45 7
47 0 12
47 1 1
47 2 5
47 3 2
47 4 11
47 5 10
47 6 10
47 7 11
47 8 5
47 9 3
47 10 9
47 11 11
47 12 8
47 13 8
47 14 7
47 15 9
47 16 1
47 17 9
47 18 9
47 19 7
47 20 10
47 21 6
47 22 1
47 23 4
47 24 6
47 25 7
47 26 3
47 27 5
47 28 9
47 29 6
47 30 12
47 31 6
47 32 7
47 33 10
47 34 11
47 35 8
47 36 4
47 37 10
47 38 11
47 39 7
47 40 8
47 41 11
47 42 6
47 43 12
47 44 8
47 45 8
47 46 7
48 0 5
48 1 1
48 2 2
48 3 3
48 4 10
48 5 6
48 6 6
48 7 11
48 8 9
48 9 6
48 10 1
48 11 3
48 12 11
48 13 12
48 14 11
48 15 3
48 16 9
48 17 6
48 18 12
48 19 4
48 20 11
48 21 2
48 22 3
48 23 1
48 24 3
48 25 4
48 26 12
48 27 12
48 28 2
48 29 11
48 30 10
48 31 8
48 32 1
48 33 10
48 34 4
48 35 12
48 36 12
48 37 2
48 38 9
48 39 4
48 40 6
48 41 6
48 42 10
48 43 8
48 44 12
48 45 5
48 46 10
48 47 7
49 0 4
49 1 6
49 2 8
49 3 10
49 4 10
49 5 1
49 6 8
49 7 2
49 8 6
49 9 11
49 10 6
49 11 12
49 12 10
49 13 7
49 14 9
49 15 2
49 16 10
49 17 4
49 18 9
49 19 8
49 20 3
49 21 4
49 22 4
49 23 4
49 24 2
49 25 4
49 26 6
49 27 8
49 28 8
49 29 9
49 30 8
49 31 9
49 32 9
49 33 12
49 34 3
49 35 8
49 36 2
49 37 12
49 38 1
49 39 8
49 40 1
49 41 11
49 42 9
49 43 8
49 44 10
49 45 9
49 46 5
49 47 12
49 48 9
50 0 3
50 1 3
50 2 7
50 3 12
50 4 6
50 5 5
50 6 1
50 7 1
50 8 3
50 9 8
50 10 3
50 11 3
50 12 8
50 13 1
50 14 2
50 15 12
50 16 1
50 17 11
50 18 9
50 19 6
50 20 1
50 21 11
50 22 5
50 23 5
50 24 1
50 25 11
50 26 12
50 27 11
50 28 11
50 29 8
50 30 4
50 31 4
50 32 11
50 33 10
50 34 1
50 35 10
50 36 7
50 37 8
50 38 6
50 39 1
50 40 6
50 41 12
50 42 11
50 43 1
50 44 6
50 45 2
50 46 7
50 47 7
50 48 6
50 49 1
51 0 1
51 1 6
51 2 1
51 3 2
51 4 5
51 5 3
51 6 6
51 7 11
51 8 4
51 9 7
51 10 12
51 11 9
51 12 8
51 13 4
51 14 10
51 15 3
51 16 7
51 17 4
51 18 11
51 19 10
51 20 7
51 21 3
51 22 11
51 23 12
51 24 2
51 25 8
51 26 10
51 27 8
51 28 5
51 29 12
51 30 1
51 31 6
51 32 7
51 33 9
51 34 1
51 35 7
51 36 1
51 37 3
51 38 8
51 39 8
51 40 6
51 41 7
51 42 10
51 43 5
51 44 6
51 45 7
51 46 3
51 47 7
51 48 8
51 49 1
51 50 10
52 0 9
52 1 12
52 2 3
52 3 11
52 4 10
52 5 5
52 6 11
52 7 5
52 8 2
52 9 8
52 10 7
52 11 10
52 12 5
52 13 10
52 14 5
52 15 5
52 16 1
52 17 4
52 18 9
52 19 11
52 20 3
52 21 11
52 22 8
52 23 6
52 24 11
52 25 1
52 26 4
52 27 8
52 28 2
52 29 2
52 30 9
52 31 1
52 32 7
52 33 8
52 34 6
52 35 7
52 36 12
52 37 3
52 38 5
52 39 6
52 40 1
52 41 9
52 42 12
52 43 11
52 44 7
52 45 5
52 46 11
52 47 9
52 48 5
52 49 10
52 50 6
52 51 3
53 0 12
53 1 7
53 2 3
53 3 10
53 4 3
53 5 7
53 6 12
53 7 1
53 8 10
53 9 7
53 10 3
53 11 12
53 12 8
53 13 11
53 14 4
53 15 1
53 16 8
53 17 7
53 18 1
53 19 9
53 20 12
53 21 5
53 22 11
53 23 12
53 24 10
53 25 1
53 26 5
53 27 5
53 28 9
53 29 3
53 30 11
53 31 10
53 32 9
53 33 7
53 34 11
53 35 1
53 36 6
53 37 5
53 38 10
53 39 12
53 40 11
53 41 2
53 42 1
53 43 4
53 44 5
53 45 4
53 46 12
53 47 6
53 48 9
53 49 10
53 50 3
53 51 7
53 52 10
54 0 6
54 1 9
54 2 5
54 3 8
54 4 7
54 5 8
54 6 5
54 7 8
54 8 1
54 9 4
54 10 8
54 11 1
54 12 11
54 13 4
54 14 4
54 15 8
54 16 4
54 17 11
54 18 5
54 19 9
54 20 10
54 21 3
54 22 11
54 23 5
54 24 3
54 25 1
54 26 12
54 27 2
54 28 12
54 29 10
54 30 4
54 31 6
54 32 5
54 33 3
54 34 1
54 35 10
54 36 5
54 37 9
54 38 9
54 39 2
54 40 2
54 41 2
54 42 5
54 43 12
54 44 12
54 45 8
54 46 6
54 47 12
54 48 6
54 49 2
54 50 4
54 51 5
54 52 8
54 53 7
55 0 6
55 1 7
55 2 9
55 3 3
55 4 5
55 5 10
55 6 10
55 7 2
55 8 2
55 9 1
55 10 12
55 11 2
55 12 12
55 13 3
55 14 6
55 15 4
55 16 6
55 17 1
55 18 8
55 19 10
55 20 11
55 21 11
55 22 3
55 23 4
55 24 10
55 25 2
55 26 10
55 27 5
55 28 9
55 29 2
55 30 9
55 31 8
55 32 10
55 33 8
55 34 10
55 35 2
55 36 10
55 37 1
55 38 2
55 39 8
55 40 7
55 41 10
55 42 10
55 43 11
55 44 1
55 45 6
55 46 5
55 47 9
55 48 9
55 49 2
55 50 2
55 51 3
55 52 8
55 53 10
55 54 12
56 0 9
56 1 7
56 2 5
56 3 11
56 4 1
56 5 9
56 6 6
56 7 7
56 8 6
56 9 1
56 10 9
56 11 7
56 12 6
56 13 4
56 14 5
56 15 10
56 16 6
56 17 5
56 18 3
56 19 4
56 20 2
56 21 8
56 22 5
56 23 10
56 24 5
56 25 2
56 26 1
56 27 12
56 28 8
56 29 1
56 30 6
56 31 12
56 32 9
56 33 6
56 34 7
56 35 3
56 36 9
56 37 8
56 38 4
56 39 1
56 40 10
56 41 10
56 42 1
56 43 3
56 44 3
56 45 6
56 46 4
56 47 11
56 48 4
56 49 12
56 50 7
56 51 2
56 52 8
56 53 4
56 54 10
56 55 4
57 0 8
57 1 11
57 2 11
57 3 4
57 4 2
57 5 4
57 6 7
57 7 12
57 8 6
57 9 1
57 10 7
57 11 8
57 12 7
57 13 4
57 14 2
57 15 10
57 16 3
57 17 4
57 18 8
57 19 7
57 20 1
57 21 1
57 22 7
57 23 11
57 24 9
57 25 1
57 26 7
57 27 9
57 28 10
57 29 1
57 30 4
57 31 8
57 32 12
57 33 7
57 34 9
57 35 1
57 36 3
57 37 8
57 38 8
57 39 6
57 40 1
57 41 2
57 42 1
57 43 12
57 44 6
57 45 3
57 46 1
57 47 2
57 48 6
57 49 4
57 50 11
57 51 9
57 52 1
57 53 12
57 54 2
57 55 11
57 56 12
58 0 6
58 1 12
58 2 4
58 3 2
58 4 10
58 5 7
58 6 12
58 7 6
58 8 12
58 9 6
58 10 6
58 11 11
58 12 7
58 13 10
58 14 5
58 15 12
58 16 9
58 17 1
58 18 7
58 19 4
58 20 7
58 21 3
58 22 4
58 23 6
58 24 10
58 25 6
58 26 10
58 27 2
58 28 6
58 29 9
58 30 10
58 31 11
58 32 11
58 33 4
58 34 2
58 35 4
58 36 4
58 37 5
58 38 1
58 39 7
58 40 8
58 41 7
58 42 3
58 43 10
58 44 1
58 45 2
58 46 10
58 47 12
58 48 10
58 49 9
58 50 6
58 51 9
58 52 7
58 53 9
58 54 8
58 55 5
58 56 9
58 57 7
59 0 7
59 1 2
59 2 1
59 3 8
59 4 3
59 5 1
59 6 12
59 7 6
59 8 7
59 9 6
59 10 1
59 11 2
59 12 2
59 13 4
59 14 4
59 15 2
59 16 12
59 17 2
59 18 7
59 19 7
59 20 4
59 21 8
59 22 6
59 23 12
59 24 3
59 25 10
59 26 5
59 27 9
59 28 10
59 29 12
59 30 2
59 31 10
59 32 9
59 33 2
59 34 3
59 35 1
59 36 11
59 37 11
59 38 11
59 39 6
59 40 5
59 41 1
59 42 1
59 43 5
59 44 5
59 45 11
59 46 2
59 47 7
59 48 6
59 49 3
59 50 3
59 51 7
59 52 1
59 53 2
59 54 3
59 55 1
59 56 5
59 57 9
59 58 7
60 0 1
60 1 10
60 2 9
60 3 8
60 4 12
60 5 6
60 6 3
60 7 10
60 8 2
60 9 9
60 10 2
60 11 1
60 12 2
60 13 9
60 14 4
60 15 4
60 16 9
60 17 12
60 18 2
60 19 7
60 20 3
60 21 10
60 22 5
60 23 12
60 24 5
60 25 12
60 26 8
60 27 1
60 28 3
60 29 7
60 30 6
60 31 12
60 32 8
60 33 3
60 34 9
60 35 3
60 36 6
60 37 12
60 38 1
60 39 12
60 40 5
60 41 12
60 42 6
60 43 6
60 44 5
60 45 4
60 46 3
60 47 6
60 48 4
60 49 3
60 50 5
60 51 10
60 52 8
60 53 4
60 54 2
60 55 11
60 56 4
60 57 12
60 58 3
60 59 7
61 0 8
61 1 6
61 2 3
61 3 11
61 4 6
61 5 4
61 6 5
61 7 9
61 8 1
61 9 3
61 10 10
61 11 9
61 12 4
61 13 6
61 14 4
61 15 12
61 16 5
61 17 9
61 18 12
61 19 11
61 20 6
61 21 8
61 22 11
61 23 9
61 24 12
61 25 2
61 26 6
61 27 2
61 28 12
61 29 12
61 30 5
61 31 2
61 32 6
61 33 5
61 34 7
61 35 7
61 36 11
61 37 3
61 38 11
61 39 9
61 40 7
61 41 6
61 42 5
61 43 4
61 44 3
61 45 8
61 46 3
61 47 3
61 48 11
61 49 7
61 50 7
61 51 7
61 52 5
61 53 4
61 54 8
61 55 3
61 56 11
61 57 10
61 58 12
61 59 3
61 60 12
62 0 3
62 1 11
62 2 4
62 3 4
62 4 10
62 5 4
62 6 12
62 7 9
62 8 3
62 9 1
62 10 11
62 11 6
62 12 3
62 13 7
62 14 7
62 15 8
62 16 8
62 17 10
62 18 11
62 19 2
62 20 4
62 21 6
62 22 5
62 23 12
62 24 12
62 25 3
62 26 3
62 27 12
62 28 2
62 29 8
62 30 1
62 31 7
62 32 4
62 33 2
62 34 8
62 35 1
62 36 1
62 37 2
62 38 1
62 39 5
62 40 8
62 41 10
62 42 11
62 43 8
62 44 6
62 45 1
62 46 10
62 47 6
62 48 11
62 49 4
62 50 11
62 51 2
62 52 10
62 53 6
62 54 7
62 55 3
62 56 10
62 57 11
62 58 10
62 59 4
62 60 7
62 61 9
63 0 6
63 1 8
63 2 5
63 3 1
63 4 11
63 5 1
63 6 5
63 7 5
63 8 2
63 9 3
63 10 2
63 11 11
63 12 11
63 13 11
63 14 9
63 15 11
63 16 11
63 17 1
63 18 8
63 19 3
63 20 6
63 21 10
63 22 4
63 23 3
63 24 3
63 25 11
63 26 4
63 27 11
63 28 9
63 29 7
63 30 1
63 31 1
63 32 9
63 33 10
63 34 4
63 35 7
63 36 4
63 37 10
63 38 9
63 39 3
63 40 7
63 41 4
63 42 1
63 43 10
63 44 7
63 45 7
63 46 5
63 47 7
63 48 10
63 49 1
63 50 6
63 51 11
63 52 6
63 53 1
63 54 7
63 55 10
63 56 4
63 57 5
63 58 10
63 59 7
63 60 12
63 61 3
63 62 7
64 0 3
64 1 2
64 2 7
64 3 10
64 4 5
64 5 9
64 6 3
64 7 6
64 8 3
64 9 5
64 10 10
64 11 3
64 12 11
64 13 12
64 14 6
64 15 8
64 16 7
64 17 6
64 18 3
64 19 7
64 20 5
64 21 4
64 22 1
64 23 1
64 24 6
64 25 1
64 26 5
64 27 12
64 28 6
64 29 5
64 30 6
64 31 1
64 32 6
64 33 4
64 34 7
64 35 8
64 36 10
64 37 10
64 38 7
64 39 2
64 40 9
64 41 5
64 42 5
64 43 3
64 44 7
64 45 3
64 46 5
64 47 1
64 48 8
64 49 11
64 50 2
64 51 8
64 52 10
64 53 5
64 54 7
64 55 3
64 56 4
64 57 6
64 58 2
64 59 10
64 60 9
64 61 9
64 62 9
64 63 7
65 0 2
65 1 11
65 2 9
65 3 9
65 4 11
65 5 1
65 6 2
65 7 7
65 8 11
65 9 10
65 10 11
65 11 11
65 12 8
65 13 4
65 14 7
65 15 12
65 16 12
65 17 6
65 18 6
65 19 1
65 20 6
65 21 10
65 22 4
65 23 4
65 24 11
65 25 7
65 26 7
65 27 11
65 28 8
65 29 9
65 30 4
65 31 5
65 32 8
65 33 2
65 34 4
65 35 3
65 36 9
65 37 1
65 38 9
65 39 6
65 40 3
65 41 2
65 42 11
65 43 10
65 44 1
65 45 2
65 46 7
65 47 7
65 48 11
65 49 2
65 50 11
65 51 3
65 52 11
65 53 1
65 54 5
65 55 12
65 56 12
65 57 1
65 58 8
65 59 6
65 60 9
65 61 3
65 62 4
65 63 7
65 64 8
66 0 7
66 1 2
66 2 1
66 3 6
66 4 6
66 5 6
66 6 3
66 7 12
66 8 12
66 9 6
66 10 2
66 11 5
66 12 1
66 13 1
66 14 1
66 15 8
66 16 7
66 17 10
66 18 7
66 19 11
66 20 11
66 21 3
66 22 2
66 23 12
66 24 3
66 25 3
66 26 8
66 27 10
66 28 7
66 29 10
66 30 6
66 31 7
66 32 11
66 33 10
66 34 6
66 35 7
66 36 9
66 37 4
66 38 12
66 39 3
66 40 12
66 41 9
66 42 5
66 43 1
66 44 11
66 45 12
66 46 2
66 47 1
66 48 12
66 49 11
66 50 8
66 51 5
66 52 6
66 53 6
66 54 3
66 55 10
66 56 7
66 57 6
66 58 8
66 59 4
66 60 5
66 61 2
66 62 5
66 63 11
66 64 3
66 65 7
67 0 9
67 1 12
67 2 3
67 3 12
67 4 1
67 5 3
67 6 6
67 7 10
67 8 7
67 9 2
67 10 10
67 11 10
67 12 5
67 13 1
67 14 11
67 15 8
67 16 8
67 17 7
67 18 6
67 19 11
67 20 2
67 21 6
67 22 1
67 23 11
67 24 8
67 25 5
67 26 3
67 27 11
67 28 7
67 29 5
67 30 1
67 31 2
67 32 1
67 33 2
67 34 7
67 35 3
67 36 2
67 37 3
67 38 2
67 39 12
67 40 6
67 41 10
67 42 11
67 43 8
67 44 5
67 45 7
67 46 8
67 47 4
67 48 1
67 49 9
67 50 6
67 51 7
67 52 11
67 53 11
67 54 3
67 55 7
67 56 5
67 57 10
67 58 1
67 59 12
67 60 2
67 61 7
67 62 12
67 63 10
67 64 7
67 65 6
67 66 11
68 0 10
68 1 1
68 2 12
68 3 7
68 4 11
68 5 11
68 6 5
68 7 12
68 8 6
68 9 1
68 10 9
68 11 12
68 12 5
68 13 2
68 14 4
68 15 12
68 16 12
68 17 4
68 18 2
68 19 9
68 20 12
68 21 12
68 22 7
68 23 3
68 24 4
68 25 11
68 26 11
68 27 12
68 28 10
68 29 11
68 30 12
68 31 5
68 32 11
68 33 4
68 34 6
68 35 3
68 36 9
68 37 8
68 38 7
68 39 2
68 40 2
68 41 4
68 42 2
68 43 2
68 44 3
68 45 12
68 46 12
68 47 7
68 48 5
68 49 3
68 50 7
68 51 10
68 52 11
68 53 2
68 54 9
68 55 11
68 56 2
68 57 8
68 58 2
68 59 4
68 60 5
68 61 12
68 62 1
68 63 7
68 64 1
68 65 2
68 66 8
68 67 6
69 0 2
69 1 8
69 2 7
69 3 5
69 4 7
69 5 11
69 6 1
69 7 10
69 8 9
69 9 9
69 10 8
69 11 10
69 12 7
69 13 11
69 14 2
69 15 2
69 16 7
69 17 5
69 18 9
69 19 8
69 20 1
69 21 12
69 22 7
69 23 4
69 24 10
69 25 5
69 26 12
69 27 12
69 28 7
69 29 7
69 30 12
69 31 2
69 32 12
69 33 5
69 34 11
69 35 3
69 36 1
69 37 11
69 38 3
69 39 7
69 40 1
69 41 8
69 42 12
69 43 1
69 44 6
69 45 12
69 46 2
69 47 7
69 48 11
69 49 3
69 50 3
69 51 5
69 52 6
69 53 1
69 54 10
69 55 10
69 56 10
69 57 5
69 58 9
69 59 11
69 60 3
69 61 8
69 62 2
69 63 2
69 64 7
69 65 8
69 66 5
69 67 9
69 68 4
